p edge 360 2520
e 1 7
e 1 164
e 1 165
e 1 184
e 1 186
e 1 278
e 1 329
e 2 44
e 2 191
e 2 227
e 2 239
e 2 283
e 2 289
e 2 317
e 3 4
e 3 21
e 3 37
e 3 72
e 3 144
e 3 216
e 3 269
e 4 18
e 4 29
e 4 30
e 4 35
e 4 65
e 4 97
e 4 290
e 5 108
e 5 129
e 5 168
e 5 237
e 5 273
e 5 323
e 5 359
e 6 96
e 6 137
e 6 151
e 6 171
e 6 234
e 6 293
e 6 296
e 7 3
e 7 38
e 7 174
e 7 187
e 7 192
e 7 230
e 7 302
e 8 18
e 8 39
e 8 187
e 8 234
e 8 279
e 8 293
e 8 329
e 9 53
e 9 67
e 9 113
e 9 117
e 9 178
e 9 272
e 9 317
e 10 122
e 10 160
e 10 187
e 10 262
e 10 274
e 10 314
e 10 316
e 11 120
e 11 150
e 11 162
e 11 193
e 11 226
e 11 228
e 11 250
e 12 30
e 12 77
e 12 104
e 12 128
e 12 178
e 12 199
e 12 301
e 13 7
e 13 175
e 13 182
e 13 193
e 13 204
e 13 309
e 13 342
e 14 41
e 14 47
e 14 93
e 14 103
e 14 271
e 14 330
e 14 355
e 15 9
e 15 56
e 15 56
e 15 72
e 15 78
e 15 309
e 15 357
e 16 2
e 16 11
e 16 60
e 16 234
e 16 243
e 16 298
e 16 299
e 17 8
e 17 58
e 17 65
e 17 163
e 17 234
e 17 238
e 17 272
e 18 39
e 18 52
e 18 116
e 18 135
e 18 221
e 18 315
e 18 340
e 19 95
e 19 131
e 19 185
e 19 188
e 19 194
e 19 195
e 19 218
e 20 23
e 20 31
e 20 54
e 20 56
e 20 107
e 20 127
e 20 313
e 21 74
e 21 127
e 21 137
e 21 169
e 21 246
e 21 296
e 21 297
e 22 139
e 22 204
e 22 236
e 22 248
e 22 294
e 22 309
e 22 357
e 23 81
e 23 142
e 23 171
e 23 287
e 23 293
e 23 315
e 23 332
e 24 16
e 24 34
e 24 47
e 24 64
e 24 146
e 24 248
e 24 335
e 25 12
e 25 68
e 25 70
e 25 145
e 25 146
e 25 215
e 25 237
e 26 3
e 26 139
e 26 194
e 26 238
e 26 251
e 26 275
e 26 278
e 27 106
e 27 141
e 27 221
e 27 301
e 27 353
e 27 359
e 27 359
e 28 39
e 28 87
e 28 128
e 28 242
e 28 246
e 28 269
e 28 288
e 29 20
e 29 64
e 29 86
e 29 102
e 29 115
e 29 305
e 29 322
e 30 26
e 30 32
e 30 50
e 30 119
e 30 135
e 30 278
e 30 331
e 31 36
e 31 38
e 31 77
e 31 79
e 31 165
e 31 175
e 31 314
e 32 14
e 32 169
e 32 224
e 32 231
e 32 268
e 32 299
e 32 350
e 33 36
e 33 52
e 33 163
e 33 165
e 33 192
e 33 214
e 33 286
e 34 44
e 34 57
e 34 153
e 34 272
e 34 299
e 34 303
e 34 341
e 35 77
e 35 194
e 35 219
e 35 249
e 35 263
e 35 269
e 35 340
e 36 23
e 36 102
e 36 200
e 36 298
e 36 310
e 36 345
e 36 345
e 37 41
e 37 136
e 37 162
e 37 163
e 37 255
e 37 272
e 37 313
e 38 98
e 38 171
e 38 175
e 38 206
e 38 238
e 38 239
e 38 323
e 39 20
e 39 45
e 39 77
e 39 114
e 39 134
e 39 134
e 39 267
e 40 25
e 40 88
e 40 158
e 40 179
e 40 236
e 40 315
e 40 351
e 41 57
e 41 72
e 41 104
e 41 209
e 41 242
e 41 273
e 41 274
e 42 57
e 42 77
e 42 167
e 42 217
e 42 282
e 42 329
e 42 348
e 43 15
e 43 50
e 43 99
e 43 113
e 43 176
e 43 276
e 43 300
e 44 17
e 44 144
e 44 196
e 44 232
e 44 244
e 44 246
e 44 320
e 45 40
e 45 112
e 45 251
e 45 261
e 45 273
e 45 275
e 45 294
e 46 74
e 46 115
e 46 199
e 46 203
e 46 271
e 46 304
e 46 331
e 47 10
e 47 48
e 47 122
e 47 150
e 47 152
e 47 282
e 47 305
e 48 102
e 48 120
e 48 136
e 48 181
e 48 233
e 48 331
e 48 359
e 49 2
e 49 19
e 49 96
e 49 214
e 49 238
e 49 341
e 49 346
e 50 47
e 50 131
e 50 170
e 50 229
e 50 241
e 50 268
e 50 295
e 51 27
e 51 54
e 51 117
e 51 256
e 51 279
e 51 333
e 51 360
e 52 10
e 52 50
e 52 163
e 52 181
e 52 215
e 52 300
e 52 354
e 53 2
e 53 69
e 53 103
e 53 201
e 53 226
e 53 284
e 53 292
e 54 32
e 54 87
e 54 88
e 54 172
e 54 283
e 54 322
e 54 339
e 55 12
e 55 40
e 55 46
e 55 120
e 55 124
e 55 128
e 55 307
e 56 61
e 56 99
e 56 126
e 56 163
e 56 223
e 56 255
e 56 360
e 57 111
e 57 128
e 57 136
e 57 188
e 57 249
e 57 299
e 57 336
e 58 94
e 58 142
e 58 202
e 58 213
e 58 241
e 58 242
e 58 257
e 59 39
e 59 52
e 59 61
e 59 176
e 59 216
e 59 228
e 59 315
e 60 128
e 60 136
e 60 137
e 60 199
e 60 310
e 60 310
e 60 322
e 61 58
e 61 88
e 61 125
e 61 178
e 61 182
e 61 344
e 61 359
e 62 5
e 62 26
e 62 44
e 62 70
e 62 260
e 62 306
e 62 331
e 63 2
e 63 36
e 63 75
e 63 126
e 63 164
e 63 242
e 63 245
e 64 29
e 64 170
e 64 214
e 64 215
e 64 216
e 64 227
e 64 315
e 65 35
e 65 37
e 65 172
e 65 174
e 65 201
e 65 225
e 65 240
e 66 33
e 66 208
e 66 288
e 66 299
e 66 301
e 66 345
e 66 353
e 67 63
e 67 124
e 67 149
e 67 162
e 67 167
e 67 191
e 67 194
e 68 22
e 68 49
e 68 51
e 68 57
e 68 96
e 68 171
e 68 264
e 69 134
e 69 137
e 69 162
e 69 183
e 69 189
e 69 256
e 69 334
e 70 1
e 70 46
e 70 109
e 70 198
e 70 208
e 70 230
e 70 241
e 71 106
e 71 109
e 71 156
e 71 181
e 71 218
e 71 285
e 71 313
e 72 76
e 72 90
e 72 97
e 72 127
e 72 147
e 72 156
e 72 325
e 73 59
e 73 87
e 73 101
e 73 165
e 73 190
e 73 318
e 73 350
e 74 7
e 74 106
e 74 140
e 74 140
e 74 149
e 74 173
e 74 262
e 75 3
e 75 10
e 75 21
e 75 67
e 75 123
e 75 303
e 75 343
e 76 144
e 76 164
e 76 180
e 76 228
e 76 284
e 76 299
e 76 312
e 77 21
e 77 68
e 77 96
e 77 106
e 77 108
e 77 128
e 77 273
e 78 42
e 78 85
e 78 98
e 78 206
e 78 229
e 78 270
e 78 358
e 79 15
e 79 44
e 79 54
e 79 202
e 79 235
e 79 259
e 79 305
e 80 69
e 80 160
e 80 162
e 80 180
e 80 180
e 80 187
e 80 222
e 81 102
e 81 108
e 81 139
e 81 191
e 81 290
e 81 316
e 81 325
e 82 88
e 82 108
e 82 109
e 82 142
e 82 193
e 82 283
e 82 351
e 83 7
e 83 75
e 83 160
e 83 190
e 83 203
e 83 220
e 83 335
e 84 49
e 84 73
e 84 126
e 84 233
e 84 309
e 84 323
e 84 334
e 85 22
e 85 100
e 85 172
e 85 199
e 85 262
e 85 293
e 85 322
e 86 24
e 86 34
e 86 78
e 86 92
e 86 98
e 86 279
e 86 313
e 87 41
e 87 57
e 87 74
e 87 165
e 87 229
e 87 293
e 87 340
e 88 115
e 88 146
e 88 202
e 88 203
e 88 277
e 88 293
e 88 317
e 89 28
e 89 60
e 89 122
e 89 216
e 89 219
e 89 226
e 89 226
e 90 55
e 90 147
e 90 245
e 90 246
e 90 274
e 90 313
e 90 347
e 91 19
e 91 26
e 91 117
e 91 229
e 91 249
e 91 297
e 91 310
e 92 54
e 92 136
e 92 194
e 92 230
e 92 285
e 92 308
e 92 326
e 93 98
e 93 98
e 93 173
e 93 216
e 93 270
e 93 312
e 93 337
e 94 1
e 94 89
e 94 186
e 94 188
e 94 258
e 94 263
e 94 275
e 95 70
e 95 118
e 95 147
e 95 187
e 95 201
e 95 264
e 95 266
e 96 9
e 96 109
e 96 152
e 96 189
e 96 271
e 96 283
e 96 344
e 97 41
e 97 71
e 97 205
e 97 265
e 97 273
e 97 326
e 97 336
e 98 158
e 98 242
e 98 243
e 98 249
e 98 291
e 98 302
e 98 346
e 99 131
e 99 132
e 99 211
e 99 270
e 99 293
e 99 293
e 99 307
e 100 25
e 100 121
e 100 185
e 100 191
e 100 214
e 100 311
e 100 336
e 101 8
e 101 46
e 101 84
e 101 92
e 101 197
e 101 238
e 101 278
e 102 97
e 102 104
e 102 109
e 102 200
e 102 247
e 102 253
e 102 306
e 103 16
e 103 128
e 103 236
e 103 265
e 103 271
e 103 280
e 103 350
e 104 74
e 104 78
e 104 110
e 104 177
e 104 200
e 104 226
e 104 294
e 105 28
e 105 108
e 105 121
e 105 158
e 105 166
e 105 190
e 105 198
e 106 142
e 106 236
e 106 273
e 106 288
e 106 305
e 106 322
e 106 329
e 107 11
e 107 51
e 107 68
e 107 75
e 107 119
e 107 122
e 107 240
e 108 36
e 108 122
e 108 175
e 108 202
e 108 298
e 108 340
e 108 355
e 109 1
e 109 136
e 109 195
e 109 217
e 109 226
e 109 236
e 109 249
e 110 22
e 110 31
e 110 83
e 110 138
e 110 157
e 110 272
e 110 341
e 111 172
e 111 185
e 111 231
e 111 241
e 111 331
e 111 338
e 111 356
e 112 44
e 112 98
e 112 100
e 112 162
e 112 178
e 112 198
e 112 320
e 113 16
e 113 37
e 113 239
e 113 255
e 113 259
e 113 305
e 113 347
e 114 88
e 114 118
e 114 137
e 114 162
e 114 203
e 114 246
e 114 341
e 115 69
e 115 92
e 115 94
e 115 114
e 115 148
e 115 158
e 115 176
e 116 31
e 116 43
e 116 146
e 116 151
e 116 206
e 116 260
e 116 360
e 117 59
e 117 66
e 117 183
e 117 204
e 117 228
e 117 248
e 117 249
e 118 14
e 118 15
e 118 30
e 118 73
e 118 134
e 118 165
e 118 189
e 119 38
e 119 68
e 119 73
e 119 84
e 119 183
e 119 240
e 119 346
e 120 12
e 120 186
e 120 188
e 120 190
e 120 205
e 120 225
e 120 234
e 121 36
e 121 40
e 121 234
e 121 276
e 121 298
e 121 338
e 121 356
e 122 37
e 122 96
e 122 111
e 122 202
e 122 244
e 122 309
e 122 352
e 123 25
e 123 124
e 123 156
e 123 161
e 123 205
e 123 289
e 123 345
e 124 51
e 124 60
e 124 90
e 124 112
e 124 146
e 124 173
e 124 294
e 125 82
e 125 99
e 125 108
e 125 209
e 125 268
e 125 269
e 125 313
e 126 6
e 126 186
e 126 225
e 126 241
e 126 246
e 126 291
e 126 303
e 127 70
e 127 79
e 127 124
e 127 304
e 127 306
e 127 333
e 127 339
e 128 47
e 128 52
e 128 63
e 128 88
e 128 102
e 128 134
e 128 160
e 129 5
e 129 71
e 129 72
e 129 122
e 129 182
e 129 241
e 129 280
e 130 50
e 130 53
e 130 229
e 130 229
e 130 318
e 130 322
e 130 337
e 131 16
e 131 41
e 131 114
e 131 226
e 131 239
e 131 288
e 131 293
e 132 60
e 132 64
e 132 107
e 132 119
e 132 164
e 132 221
e 132 318
e 133 111
e 133 155
e 133 158
e 133 188
e 133 195
e 133 236
e 133 263
e 134 33
e 134 101
e 134 119
e 134 218
e 134 225
e 134 242
e 134 337
e 135 26
e 135 53
e 135 87
e 135 139
e 135 216
e 135 234
e 135 273
e 136 15
e 136 24
e 136 180
e 136 249
e 136 290
e 136 320
e 136 335
e 137 46
e 137 48
e 137 115
e 137 186
e 137 286
e 137 340
e 137 346
e 138 82
e 138 250
e 138 276
e 138 322
e 138 329
e 138 351
e 138 357
e 139 39
e 139 68
e 139 91
e 139 99
e 139 238
e 139 270
e 139 302
e 140 52
e 140 154
e 140 183
e 140 256
e 140 288
e 140 325
e 140 342
e 141 67
e 141 70
e 141 94
e 141 134
e 141 241
e 141 246
e 141 353
e 142 30
e 142 42
e 142 43
e 142 80
e 142 196
e 142 279
e 142 322
e 143 65
e 143 262
e 143 275
e 143 277
e 143 279
e 143 301
e 143 351
e 144 6
e 144 44
e 144 123
e 144 153
e 144 215
e 144 253
e 144 294
e 145 20
e 145 25
e 145 116
e 145 154
e 145 172
e 145 276
e 145 351
e 146 2
e 146 14
e 146 17
e 146 42
e 146 49
e 146 130
e 146 340
e 147 4
e 147 43
e 147 97
e 147 103
e 147 128
e 147 140
e 147 292
e 148 78
e 148 169
e 148 232
e 148 276
e 148 304
e 148 319
e 148 340
e 149 56
e 149 129
e 149 133
e 149 202
e 149 218
e 149 233
e 149 257
e 150 72
e 150 82
e 150 88
e 150 178
e 150 191
e 150 304
e 150 329
e 151 14
e 151 52
e 151 93
e 151 217
e 151 218
e 151 325
e 151 345
e 152 27
e 152 61
e 152 72
e 152 191
e 152 261
e 152 264
e 152 283
e 153 29
e 153 80
e 153 105
e 153 152
e 153 190
e 153 198
e 153 240
e 154 157
e 154 174
e 154 199
e 154 207
e 154 230
e 154 303
e 154 317
e 155 29
e 155 110
e 155 122
e 155 178
e 155 181
e 155 207
e 155 323
e 156 5
e 156 50
e 156 56
e 156 130
e 156 166
e 156 171
e 156 322
e 157 40
e 157 145
e 157 190
e 157 261
e 157 262
e 157 268
e 157 315
e 158 13
e 158 83
e 158 126
e 158 175
e 158 181
e 158 310
e 158 334
e 159 25
e 159 95
e 159 154
e 159 255
e 159 266
e 159 311
e 159 343
e 160 33
e 160 122
e 160 124
e 160 129
e 160 136
e 160 202
e 160 284
e 161 83
e 161 214
e 161 236
e 161 244
e 161 251
e 161 300
e 161 315
e 162 20
e 162 38
e 162 39
e 162 54
e 162 81
e 162 143
e 162 254
e 163 64
e 163 69
e 163 99
e 163 214
e 163 229
e 163 243
e 163 354
e 164 20
e 164 53
e 164 125
e 164 152
e 164 274
e 164 309
e 164 330
e 165 38
e 165 43
e 165 66
e 165 102
e 165 145
e 165 152
e 165 197
e 166 77
e 166 99
e 166 123
e 166 151
e 166 207
e 166 239
e 166 315
e 167 164
e 167 187
e 167 275
e 167 280
e 167 294
e 167 328
e 167 349
e 168 6
e 168 8
e 168 96
e 168 104
e 168 143
e 168 166
e 168 210
e 169 27
e 169 45
e 169 114
e 169 156
e 169 173
e 169 273
e 169 336
e 170 18
e 170 56
e 170 138
e 170 236
e 170 241
e 170 289
e 170 342
e 171 44
e 171 74
e 171 160
e 171 166
e 171 167
e 171 168
e 171 244
e 172 3
e 172 83
e 172 93
e 172 111
e 172 149
e 172 250
e 172 279
e 173 8
e 173 39
e 173 95
e 173 111
e 173 246
e 173 257
e 173 305
e 174 113
e 174 138
e 174 155
e 174 177
e 174 225
e 174 240
e 174 278
e 175 2
e 175 2
e 175 57
e 175 58
e 175 101
e 175 291
e 175 349
e 176 73
e 176 95
e 176 122
e 176 151
e 176 236
e 176 254
e 176 315
e 177 134
e 177 137
e 177 238
e 177 255
e 177 273
e 177 320
e 177 347
e 178 61
e 178 151
e 178 194
e 178 201
e 178 212
e 178 221
e 178 255
e 179 100
e 179 154
e 179 183
e 179 192
e 179 325
e 179 338
e 179 352
e 180 14
e 180 115
e 180 128
e 180 176
e 180 178
e 180 326
e 180 342
e 181 26
e 181 62
e 181 106
e 181 200
e 181 222
e 181 235
e 181 301
e 182 3
e 182 64
e 182 95
e 182 170
e 182 171
e 182 312
e 182 326
e 183 68
e 183 86
e 183 86
e 183 138
e 183 146
e 183 269
e 183 320
e 184 46
e 184 123
e 184 149
e 184 155
e 184 241
e 184 307
e 184 323
e 185 80
e 185 100
e 185 147
e 185 148
e 185 162
e 185 242
e 185 330
e 186 22
e 186 79
e 186 88
e 186 101
e 186 253
e 186 314
e 186 324
e 187 20
e 187 29
e 187 64
e 187 112
e 187 211
e 187 289
e 187 298
e 188 6
e 188 29
e 188 40
e 188 146
e 188 210
e 188 304
e 188 315
e 189 57
e 189 108
e 189 179
e 189 221
e 189 253
e 189 262
e 189 335
e 190 85
e 190 134
e 190 199
e 190 232
e 190 233
e 190 250
e 190 270
e 191 142
e 191 164
e 191 252
e 191 314
e 191 338
e 191 340
e 191 349
e 192 90
e 192 114
e 192 168
e 192 199
e 192 233
e 192 250
e 192 266
e 193 44
e 193 106
e 193 128
e 193 221
e 193 276
e 193 315
e 193 343
e 194 11
e 194 61
e 194 79
e 194 88
e 194 137
e 194 196
e 194 235
e 195 4
e 195 93
e 195 129
e 195 132
e 195 178
e 195 240
e 195 306
e 196 106
e 196 120
e 196 126
e 196 143
e 196 201
e 196 213
e 196 255
e 197 18
e 197 78
e 197 146
e 197 210
e 197 257
e 197 271
e 197 360
e 198 101
e 198 160
e 198 199
e 198 275
e 198 337
e 198 338
e 198 355
e 199 34
e 199 210
e 199 275
e 199 307
e 199 336
e 199 343
e 199 353
e 200 6
e 200 46
e 200 97
e 200 265
e 200 281
e 200 317
e 200 346
e 201 8
e 201 153
e 201 176
e 201 218
e 201 226
e 201 290
e 201 316
e 202 23
e 202 124
e 202 127
e 202 199
e 202 200
e 202 231
e 202 235
e 203 1
e 203 85
e 203 146
e 203 169
e 203 198
e 203 345
e 203 350
e 204 22
e 204 67
e 204 121
e 204 173
e 204 185
e 204 216
e 204 342
e 205 27
e 205 51
e 205 113
e 205 240
e 205 302
e 205 308
e 205 336
e 206 19
e 206 37
e 206 80
e 206 201
e 206 278
e 206 307
e 206 355
e 207 101
e 207 125
e 207 166
e 207 199
e 207 206
e 207 248
e 207 326
e 208 4
e 208 8
e 208 74
e 208 141
e 208 158
e 208 237
e 208 349
e 209 12
e 209 14
e 209 31
e 209 134
e 209 140
e 209 246
e 209 305
e 210 23
e 210 60
e 210 119
e 210 226
e 210 251
e 210 251
e 210 353
e 211 18
e 211 70
e 211 161
e 211 238
e 211 274
e 211 296
e 211 299
e 212 45
e 212 187
e 212 196
e 212 203
e 212 224
e 212 240
e 212 311
e 213 71
e 213 77
e 213 133
e 213 140
e 213 280
e 213 307
e 213 336
e 214 10
e 214 85
e 214 146
e 214 152
e 214 253
e 214 284
e 214 328
e 215 21
e 215 82
e 215 142
e 215 192
e 215 201
e 215 254
e 215 271
e 216 24
e 216 75
e 216 78
e 216 124
e 216 137
e 216 191
e 216 352
e 217 17
e 217 59
e 217 103
e 217 147
e 217 319
e 217 324
e 217 328
e 218 38
e 218 62
e 218 101
e 218 216
e 218 254
e 218 298
e 218 310
e 219 1
e 219 34
e 219 38
e 219 222
e 219 234
e 219 251
e 219 340
e 220 17
e 220 55
e 220 64
e 220 97
e 220 153
e 220 242
e 220 274
e 221 40
e 221 94
e 221 107
e 221 161
e 221 205
e 221 231
e 221 255
e 222 1
e 222 42
e 222 68
e 222 70
e 222 85
e 222 119
e 222 318
e 223 60
e 223 67
e 223 227
e 223 254
e 223 315
e 223 355
e 223 357
e 224 27
e 224 100
e 224 211
e 224 211
e 224 222
e 224 294
e 224 306
e 225 83
e 225 136
e 225 146
e 225 190
e 225 269
e 225 293
e 225 298
e 226 33
e 226 74
e 226 163
e 226 197
e 226 303
e 226 317
e 226 325
e 227 13
e 227 22
e 227 176
e 227 244
e 227 244
e 227 295
e 227 332
e 228 10
e 228 72
e 228 236
e 228 252
e 228 281
e 228 300
e 228 351
e 229 68
e 229 75
e 229 110
e 229 118
e 229 305
e 229 328
e 229 335
e 230 51
e 230 68
e 230 108
e 230 137
e 230 203
e 230 265
e 230 277
e 231 45
e 231 93
e 231 125
e 231 173
e 231 176
e 231 209
e 231 230
e 232 115
e 232 157
e 232 230
e 232 328
e 232 340
e 232 347
e 232 351
e 233 148
e 233 222
e 233 271
e 233 281
e 233 283
e 233 346
e 233 355
e 234 76
e 234 143
e 234 179
e 234 215
e 234 230
e 234 324
e 234 339
e 235 27
e 235 100
e 235 101
e 235 143
e 235 168
e 235 248
e 235 346
e 236 12
e 236 85
e 236 91
e 236 96
e 236 122
e 236 214
e 236 270
e 237 14
e 237 75
e 237 100
e 237 104
e 237 177
e 237 210
e 237 230
e 238 24
e 238 28
e 238 269
e 238 294
e 238 310
e 238 311
e 238 317
e 239 22
e 239 43
e 239 52
e 239 110
e 239 127
e 239 148
e 239 343
e 240 72
e 240 126
e 240 172
e 240 202
e 240 269
e 240 315
e 240 318
e 241 119
e 241 170
e 241 181
e 241 244
e 241 248
e 241 332
e 241 339
e 242 22
e 242 51
e 242 181
e 242 204
e 242 229
e 242 279
e 242 353
e 243 160
e 243 196
e 243 205
e 243 254
e 243 256
e 243 277
e 243 338
e 244 90
e 244 141
e 244 209
e 244 210
e 244 211
e 244 229
e 244 248
e 245 23
e 245 144
e 245 165
e 245 211
e 245 212
e 245 347
e 245 349
e 246 1
e 246 48
e 246 77
e 246 105
e 246 118
e 246 121
e 246 239
e 247 114
e 247 122
e 247 129
e 247 150
e 247 228
e 247 324
e 247 358
e 248 7
e 248 43
e 248 252
e 248 253
e 248 283
e 248 297
e 248 330
e 249 4
e 249 51
e 249 68
e 249 89
e 249 101
e 249 133
e 249 232
e 250 202
e 250 206
e 250 213
e 250 228
e 250 312
e 250 315
e 250 351
e 251 78
e 251 188
e 251 198
e 251 229
e 251 235
e 251 276
e 251 292
e 252 16
e 252 34
e 252 37
e 252 147
e 252 171
e 252 240
e 252 241
e 253 26
e 253 80
e 253 110
e 253 180
e 253 234
e 253 296
e 253 331
e 254 26
e 254 130
e 254 163
e 254 184
e 254 203
e 254 263
e 254 287
e 255 104
e 255 214
e 255 239
e 255 241
e 255 291
e 255 312
e 255 356
e 256 9
e 256 78
e 256 120
e 256 139
e 256 271
e 256 302
e 256 332
e 257 7
e 257 43
e 257 54
e 257 111
e 257 116
e 257 166
e 257 258
e 258 122
e 258 148
e 258 155
e 258 209
e 258 275
e 258 325
e 258 334
e 259 25
e 259 115
e 259 157
e 259 218
e 259 223
e 259 316
e 259 348
e 260 10
e 260 13
e 260 68
e 260 171
e 260 176
e 260 225
e 260 288
e 261 15
e 261 72
e 261 134
e 261 176
e 261 184
e 261 186
e 261 360
e 262 12
e 262 12
e 262 32
e 262 54
e 262 90
e 262 261
e 262 285
e 263 4
e 263 17
e 263 23
e 263 48
e 263 141
e 263 244
e 263 295
e 264 87
e 264 101
e 264 117
e 264 140
e 264 142
e 264 245
e 264 297
e 265 6
e 265 124
e 265 185
e 265 191
e 265 301
e 265 312
e 265 359
e 266 2
e 266 16
e 266 56
e 266 112
e 266 183
e 266 185
e 266 360
e 267 21
e 267 32
e 267 111
e 267 301
e 267 316
e 267 327
e 267 340
e 268 18
e 268 145
e 268 176
e 268 198
e 268 236
e 268 317
e 268 339
e 269 91
e 269 92
e 269 119
e 269 193
e 269 284
e 269 315
e 269 328
e 270 92
e 270 129
e 270 178
e 270 215
e 270 230
e 270 268
e 270 278
e 271 55
e 271 92
e 271 146
e 271 166
e 271 187
e 271 279
e 271 359
e 272 58
e 272 89
e 272 101
e 272 110
e 272 250
e 272 299
e 272 321
e 273 25
e 273 36
e 273 261
e 273 277
e 273 277
e 273 293
e 273 308
e 274 18
e 274 89
e 274 143
e 274 180
e 274 234
e 274 332
e 274 345
e 275 78
e 275 127
e 275 184
e 275 267
e 275 283
e 275 283
e 275 299
e 276 132
e 276 139
e 276 169
e 276 194
e 276 281
e 276 334
e 276 336
e 277 18
e 277 156
e 277 196
e 277 218
e 277 278
e 277 278
e 277 317
e 278 50
e 278 105
e 278 198
e 278 304
e 278 317
e 278 328
e 278 358
e 279 15
e 279 25
e 279 38
e 279 88
e 279 126
e 279 218
e 279 343
e 280 10
e 280 28
e 280 105
e 280 140
e 280 177
e 280 292
e 280 315
e 281 10
e 281 13
e 281 59
e 281 84
e 281 145
e 281 277
e 281 343
e 282 56
e 282 60
e 282 66
e 282 165
e 282 248
e 282 315
e 282 353
e 283 31
e 283 83
e 283 86
e 283 87
e 283 89
e 283 248
e 283 271
e 284 154
e 284 157
e 284 186
e 284 212
e 284 230
e 284 291
e 284 329
e 285 157
e 285 180
e 285 189
e 285 202
e 285 213
e 285 248
e 285 299
e 286 21
e 286 67
e 286 122
e 286 166
e 286 229
e 286 334
e 286 343
e 287 9
e 287 13
e 287 73
e 287 141
e 287 187
e 287 244
e 287 357
e 288 6
e 288 61
e 288 159
e 288 171
e 288 280
e 288 284
e 288 344
e 289 14
e 289 163
e 289 199
e 289 224
e 289 264
e 289 320
e 289 346
e 290 65
e 290 71
e 290 93
e 290 156
e 290 185
e 290 236
e 290 259
e 291 104
e 291 157
e 291 169
e 291 219
e 291 225
e 291 259
e 291 279
e 292 25
e 292 51
e 292 132
e 292 192
e 292 235
e 292 269
e 292 291
e 293 29
e 293 60
e 293 65
e 293 76
e 293 266
e 293 326
e 293 347
e 294 14
e 294 59
e 294 90
e 294 128
e 294 185
e 294 227
e 294 257
e 295 26
e 295 42
e 295 70
e 295 112
e 295 119
e 295 282
e 295 305
e 296 11
e 296 17
e 296 35
e 296 63
e 296 114
e 296 167
e 296 325
e 297 76
e 297 88
e 297 211
e 297 228
e 297 261
e 297 275
e 297 329
e 298 168
e 298 224
e 298 287
e 298 306
e 298 310
e 298 324
e 298 341
e 299 19
e 299 76
e 299 120
e 299 176
e 299 191
e 299 306
e 299 338
e 300 37
e 300 63
e 300 76
e 300 217
e 300 260
e 300 279
e 300 329
e 301 45
e 301 69
e 301 107
e 301 181
e 301 196
e 301 211
e 301 343
e 302 46
e 302 75
e 302 107
e 302 132
e 302 174
e 302 307
e 302 359
e 303 21
e 303 92
e 303 130
e 303 142
e 303 150
e 303 158
e 303 328
e 304 17
e 304 93
e 304 125
e 304 140
e 304 301
e 304 308
e 304 315
e 305 11
e 305 53
e 305 86
e 305 171
e 305 315
e 305 326
e 305 347
e 306 15
e 306 57
e 306 107
e 306 161
e 306 167
e 306 221
e 306 263
e 307 60
e 307 160
e 307 191
e 307 213
e 307 253
e 307 280
e 307 334
e 308 62
e 308 219
e 308 257
e 308 294
e 308 309
e 308 311
e 308 341
e 309 85
e 309 130
e 309 159
e 309 197
e 309 239
e 309 250
e 309 254
e 310 10
e 310 76
e 310 80
e 310 165
e 310 246
e 310 295
e 310 356
e 311 35
e 311 129
e 311 139
e 311 141
e 311 197
e 311 212
e 311 221
e 312 25
e 312 86
e 312 123
e 312 226
e 312 271
e 312 277
e 312 333
e 313 42
e 313 54
e 313 124
e 313 155
e 313 205
e 313 207
e 313 266
e 314 49
e 314 103
e 314 123
e 314 156
e 314 172
e 314 234
e 314 281
e 315 36
e 315 137
e 315 198
e 315 256
e 315 287
e 315 316
e 315 360
e 316 39
e 316 51
e 316 84
e 316 105
e 316 133
e 316 214
e 316 304
e 317 93
e 317 98
e 317 215
e 317 276
e 317 300
e 317 302
e 317 357
e 318 128
e 318 145
e 318 165
e 318 171
e 318 203
e 318 207
e 318 208
e 319 71
e 319 77
e 319 119
e 319 120
e 319 176
e 319 199
e 319 309
e 320 24
e 320 96
e 320 248
e 320 258
e 320 269
e 320 335
e 320 351
e 321 2
e 321 28
e 321 51
e 321 66
e 321 179
e 321 226
e 321 317
e 322 44
e 322 46
e 322 100
e 322 264
e 322 286
e 322 318
e 322 349
e 323 21
e 323 44
e 323 76
e 323 92
e 323 250
e 323 307
e 323 327
e 324 70
e 324 97
e 324 145
e 324 168
e 324 190
e 324 262
e 324 332
e 325 43
e 325 77
e 325 91
e 325 224
e 325 308
e 325 313
e 325 332
e 326 93
e 326 210
e 326 212
e 326 297
e 326 318
e 326 354
e 326 360
e 327 40
e 327 61
e 327 63
e 327 148
e 327 158
e 327 198
e 327 285
e 328 106
e 328 115
e 328 136
e 328 227
e 328 227
e 328 252
e 328 297
e 329 135
e 329 204
e 329 232
e 329 297
e 329 311
e 329 358
e 329 360
e 330 55
e 330 74
e 330 118
e 330 166
e 330 218
e 330 271
e 330 277
e 331 37
e 331 50
e 331 85
e 331 148
e 331 224
e 331 260
e 331 327
e 332 53
e 332 109
e 332 159
e 332 173
e 332 200
e 332 241
e 332 322
e 333 95
e 333 112
e 333 135
e 333 180
e 333 209
e 333 257
e 333 278
e 334 86
e 334 133
e 334 147
e 334 150
e 334 339
e 334 343
e 334 353
e 335 85
e 335 89
e 335 144
e 335 158
e 335 275
e 335 321
e 335 356
e 336 5
e 336 35
e 336 65
e 336 79
e 336 113
e 336 153
e 336 216
e 337 109
e 337 132
e 337 154
e 337 203
e 337 220
e 337 221
e 337 356
e 338 34
e 338 42
e 338 85
e 338 89
e 338 120
e 338 200
e 338 337
e 339 3
e 339 54
e 339 85
e 339 140
e 339 152
e 339 286
e 339 299
e 340 7
e 340 92
e 340 144
e 340 173
e 340 188
e 340 228
e 340 233
e 341 41
e 341 179
e 341 192
e 341 216
e 341 258
e 341 303
e 341 319
e 342 57
e 342 103
e 342 196
e 342 261
e 342 277
e 342 332
e 342 337
e 343 46
e 343 272
e 343 300
e 343 312
e 343 322
e 343 348
e 343 357
e 344 71
e 344 166
e 344 184
e 344 187
e 344 210
e 344 241
e 344 280
e 345 86
e 345 92
e 345 252
e 345 258
e 345 258
e 345 265
e 345 312
e 346 3
e 346 11
e 346 40
e 346 155
e 346 159
e 346 216
e 346 221
e 347 7
e 347 69
e 347 134
e 347 169
e 347 206
e 347 211
e 347 358
e 348 13
e 348 43
e 348 95
e 348 195
e 348 207
e 348 226
e 348 255
e 349 9
e 349 21
e 349 133
e 349 218
e 349 235
e 349 268
e 349 292
e 350 24
e 350 43
e 350 90
e 350 159
e 350 255
e 350 282
e 350 320
e 351 14
e 351 122
e 351 277
e 351 285
e 351 305
e 351 324
e 351 335
e 352 4
e 352 33
e 352 93
e 352 192
e 352 287
e 352 293
e 352 342
e 353 104
e 353 138
e 353 173
e 353 219
e 353 270
e 353 308
e 353 336
e 354 1
e 354 116
e 354 182
e 354 229
e 354 271
e 354 280
e 354 332
e 355 25
e 355 38
e 355 154
e 355 178
e 355 196
e 355 292
e 355 345
e 356 63
e 356 74
e 356 234
e 356 251
e 356 290
e 356 318
e 356 348
e 357 32
e 357 35
e 357 78
e 357 225
e 357 312
e 357 345
e 357 349
e 358 51
e 358 148
e 358 172
e 358 269
e 358 292
e 358 301
e 358 336
e 359 26
e 359 29
e 359 54
e 359 135
e 359 135
e 359 172
e 359 254
e 360 64
e 360 79
e 360 105
e 360 151
e 360 209
e 360 255
e 360 276
